200
750
525
524
522
521
521
521
520
520
519
515
515
514
513
509
504
503
503
499
496
496
494
490
486
484
484
484
482
481
480
478
477
475
475
468
464
463
462
462
457
456
455
451
450
447
446
443
439
438
434
433
429
427
427
425
424
421
419
418
413
412
410
409
408
405
402
401
400
398
395
393
390
390
390
389
389
386
385
381
375
370
368
356
356
354
353
350
350
348
347
345
344
340
339
338
336
335
334
333
333
333
330
325
322
321
320
317
317
317
313
313
311
311
302
301
300
299
299
298
298
293
292
290
288
288
283
283
280
272
272
271
269
269
268
268
263
262
261
261
256
252
251
249
248
245
241
238
238
237
237
233
231
230
229
223
223
222
220
216
215
214
213
208
207
207
207
203
203
203
202
199
198
197
195
191
188
186
185
185
182
182
182
181
179
178
178
177
176
176
175
175
173
172
171
162
161
159
159
153
152
151
